\ LP format - for model browsing. Use MPS format to capture full model detail.
Minimize
  7500 x2 + 7500 x2 + 5250 x2 + 5250 x2 + 5250 x2 + 5250 x2 + 7000 x2
   + 7000 x2 + 7500 x2 + 7500 x2 + 5250 x2 + 5250 x2 + 5250 x2 + 5250 x2
   + 7000 x2 + 7000 x2 + 7500 x2 + 7500 x2 + 5250 x2 + 5250 x2 + 5250 x2
   + 5250 x2 + 7000 x2 + 7000 x2 + 7500 x2 + 7500 x2 + 5250 x2 + 5250 x2
   + 5250 x2 + 5250 x2 + 7000 x2 + 7000 x2 + 7500 x2 + 7500 x2 + 5250 x2
   + 5250 x2 + 5250 x2 + 5250 x2 + 7000 x2 + 7000 x2 + 7500 x2 + 7500 x2
   + 5250 x2 + 5250 x2 + 5250 x2 + 5250 x2 + 7000 x2 + 7000 x2 + 7500 x2
   + 7500 x2 + 5250 x2 + 5250 x2 + 5250 x2 + 5250 x2 + 7000 x2 + 7000 x2
   + 7500 x2 + 7500 x2 + 5250 x2 + 5250 x2 + 5250 x2 + 5250 x2 + 7000 x2
   + 7000 x2 + 27500 x3 + 51500 x3 + 27500 x3 + 51500 x3 + 27500 x3
   + 51500 x3 + 27500 x3 + 51500 x3 + 27500 x3 + 51500 x3 + 27500 x3
   + 51500 x3 + 27500 x3 + 51500 x3 + 27500 x3 + 51500 x3 + 21500 x4
   + 21500 x4 + 21500 x4 + 21500 x4 + 21500 x4 + 21500 x4 + 21500 x4
   + 21500 x4 + 21500 x4 + 21500 x4 + 21500 x4 + 21500 x4 + 21500 x4
   + 21500 x4 + 21500 x4 + 21500 x4 + 8600 y2 + 8600 y2 + 6000 y2 + 6000 y2
   + 6000 y2 + 6000 y2 + 8000 y2 + 8000 y2 + 11000 y3 + 20600 y3 + 8600 y4
   + 8600 y4
Subject To
 c0: 14 x2 + 14 x2 + 14 x2 + 14 x2 + 14 x2 + 14 x2 + 14 x2 + 14 x2 + 14 y2
   >= 7
 c1: 14 x2 + 14 x2 + 14 x2 + 14 x2 + 14 x2 + 14 x2 + 14 x2 + 14 x2 + 14 y2
   >= 74
 c2: 14 x2 + 14 x2 + 14 x2 + 14 x2 + 14 x2 + 14 x2 + 14 x2 + 14 x2 + 14 y2
   >= -93
 c3: 14 x2 + 14 x2 + 14 x2 + 14 x2 + 14 x2 + 14 x2 + 14 x2 + 14 x2 + 14 y2
   >= -24
 c4: 14 x2 + 14 x2 + 14 x2 + 14 x2 + 14 x2 + 14 x2 + 14 x2 + 14 x2 + 14 y2
   >= -85
 c5: 14 x2 + 14 x2 + 14 x2 + 14 x2 + 14 x2 + 14 x2 + 14 x2 + 14 x2 + 14 y2
   >= -235
 c6: 14 x2 + 14 x2 + 14 x2 + 14 x2 + 14 x2 + 14 x2 + 14 x2 + 14 x2 + 14 y2
   >= -186
 c7: 14 x2 + 14 x2 + 14 x2 + 14 x2 + 14 x2 + 14 x2 + 14 x2 + 14 x2 + 14 y2
   >= -150
 c8: 14 x3 + 14 x3 + 14 x3 + 14 x3 + 14 x3 + 14 x3 + 14 x3 + 14 x3 + 14 y3
   >= -15
 c9: 14 x3 + 14 x3 + 14 x3 + 14 x3 + 14 x3 + 14 x3 + 14 x3 + 14 x3 + 14 y3
   >= -35
 c10: 14 x4 + 14 x4 + 14 x4 + 14 x4 + 14 x4 + 14 x4 + 14 x4 + 14 x4 + 14 y4
   >= -2
 c11: 14 x4 + 14 x4 + 14 x4 + 14 x4 + 14 x4 + 14 x4 + 14 x4 + 14 x4 + 14 y4
   >= -37
 c12: 1.55 x2 + 0.97 x2 + 0.5 x2 + 1.43 x2 + 1.11 x4 <= 12
 c13: 1.55 x2 + 0.97 x2 + 0.5 x2 + 1.43 x2 + 1.11 x4 <= 12
 c14: 1.55 x2 + 0.97 x2 + 0.5 x2 + 1.43 x2 + 1.11 x4 <= 10.06
 c15: 1.55 x2 + 0.97 x2 + 0.5 x2 + 1.43 x2 + 1.11 x4 <= 9.09
 c16: 1.55 x2 + 0.97 x2 + 0.5 x2 + 1.43 x2 + 1.11 x4 <= 4.44
 c17: 1.55 x2 + 0.97 x2 + 0.5 x2 + 1.43 x2 + 1.11 x4 <= 8.59
 c18: 1.55 x2 + 0.97 x2 + 0.5 x2 + 1.43 x2 + 1.11 x4 <= 11
 c19: 1.55 x2 + 0.97 x2 + 0.5 x2 + 1.43 x2 + 1.11 x4 <= 12
 c20: 1.55 x2 + 0.97 x2 + 0.5 x2 + 1.43 x2 + 1.11 x4 <= 6.21
 c21: 1.55 x2 + 0.97 x2 + 0.5 x2 + 1.43 x2 + 1.11 x4 <= 6.21
 c22: 1.55 x2 + 0.97 x2 + 0.5 x2 + 1.43 x2 + 1.11 x4 <= 12
 c23: 1.55 x2 + 0.97 x2 + 0.5 x2 + 1.43 x2 + 1.11 x4 <= 12
 c24: 1.55 x2 + 0.97 x2 + 0.5 x2 + 1.43 x2 + 1.11 x4 <= 7.71
 c25: 1.55 x2 + 0.97 x2 + 0.5 x2 + 1.43 x2 + 1.11 x4 <= 8.64
 c26: 1.55 x2 + 0.97 x2 + 0.5 x2 + 1.43 x2 + 1.11 x4 <= 11.5
 c27: 1.55 x2 + 0.97 x2 + 0.5 x2 + 1.43 x2 + 1.11 x4 <= 12
 c28: 2 x3 + 4 x3 <= 12
 c29: 2 x3 + 4 x3 <= 12
 c30: 2 x3 + 4 x3 <= 12
 c31: 2 x3 + 4 x3 <= 12
 c32: 2 x3 + 4 x3 <= 12
 c33: 2 x3 + 4 x3 <= 12
 c34: 2 x3 + 4 x3 <= 12
 c35: 2 x3 + 4 x3 <= 12
Bounds
Generals
 x2 x2 x2 x2 x2 x2 x2 x2 x2 x2 x2 x2 x2 x2 x2 x2 x2 x2 x2 x2 x2 x2 x2 x2 x2
 x2 x2 x2 x2 x2 x2 x2 x2 x2 x2 x2 x2 x2 x2 x2 x2 x2 x2 x2 x2 x2 x2 x2 x2 x2
 x2 x2 x2 x2 x2 x2 x2 x2 x2 x2 x2 x2 x2 x2 x3 x3 x3 x3 x3 x3 x3 x3 x3 x3 x3
 x3 x3 x3 x3 x3 x4 x4 x4 x4 x4 x4 x4 x4 x4 x4 x4 x4 x4 x4 x4 x4 y2 y2 y2 y2
 y2 y2 y2 y2 y3 y3 y4 y4
End
